StudentsNr = 10;
InstructorsNr = 44;
DaysNr = 2;
SlotsPerDay = 20;
AvailabilitySlotsLenght = 10;
RoomNr = 1;
ProgrammNr = 2;
DegreeNr = 2;
RolesNr = 4;
CoursesNr = 0;
InstructorsProgramm = [{2}, {2}, {2}, {1, 2}, {1, 2}, {2}, {1}, {2}, {2}, {1, 2}, {1}, {2}, {2}, {2}, {2}, {1, 2}, {1, 2}, {1}, {2}, {2}, {1}, {1}, {1}, {1}, {2}, {1}, {2}, {2}, {1}, {2}, {2}, {1}, {1}, {1}, {1, 2}, {2}, {1}, {1, 2}, {2}, {1, 2}, {1}, {2}, {2}, {1}];
InstructorRolesPerProgramm = [|{11, 18, 21, 22, 26, 32, 33, 34, 35, 44}, {5, 11, 16, 23, 35, 44}, {7, 10, 17, 21, 22, 23, 37}, {10, 11, 16, 17, 18, 21, 22, 23, 32, 34, 37, 44}|{3, 6, 8, 9, 12, 13, 14, 15, 25, 28, 31, 35, 36, 39}, {3, 5, 9, 16, 20, 25, 27, 30, 31, 35, 36, 43}, {3, 6, 8, 10, 12, 14, 17, 19, 28, 31, 42}, {3, 8, 9, 10, 13, 15, 16, 17, 20, 25, 39, 42, 43}|];
InstructorsAvailability = [|0, 1, 1, 1, |1, 1, 1, 1, |0, 1, 1, 1, |0, 0, 0, 0, |1, 1, 1, 1, |0, 0, 0, 0, |0, 0, 1, 1, |1, 0, 0, 1, |0, 1, 1, 0, |1, 1, 1, 1, |0, 0, 1, 1, |0, 0, 0, 1, |0, 0, 1, 1, |1, 0, 1, 1, |1, 1, 1, 1, |1, 1, 0, 1, |0, 0, 1, 1, |0, 0, 1, 1, |0, 0, 1, 1, |0, 1, 1, 1, |1, 1, 0, 0, |1, 0, 0, 0, |1, 1, 1, 1, |0, 1, 1, 1, |1, 0, 1, 0, |0, 0, 1, 1, |0, 1, 1, 1, |0, 1, 1, 1, |1, 0, 0, 0, |1, 1, 1, 1, |0, 1, 1, 1, |1, 1, 1, 1, |1, 1, 1, 1, |1, 1, 1, 1, |1, 1, 1, 1, |0, 0, 1, 1, |0, 0, 0, 0, |1, 1, 0, 1, |1, 1, 1, 1, |0, 0, 0, 1, |0, 1, 1, 1, |1, 0, 0, 1, |1, 1, 1, 1, |0, 0, 1, 0|];
StudentsProgramm = [1, 1, 2, 1, 1, 2, 2, 1, 1, 1];
StudentsDegree = [1, 1, 1, 1, 2, 2, 2, 2, 2, 1];
StudentsSupervisorId = [23, 26, 5, 16, 4, 4, 27, 32, 44, 44];
StudentsCourseIds = [{}, {}, {}, {}, {}, {}, {}, {}, {}, {}];
StudentsAvailability = [|0, 1, 1, 1, |1, 1, 1, 1, |1, 1, 0, 0, |0, 1, 1, 1, |0, 1, 1, 1, |0, 0, 1, 1, |0, 0, 0, 1, |1, 0, 0, 1, |1, 1, 1, 1, |1, 1, 1, 1|];
TheoryticalMinCard = [0, 0, 0, 0, 1, 1, 0, 0, 0, 0];
CoursesInstructorIds = [];
RolesDemands = [5, 3, 6, 9];
RolesContinuity = [3, 1];
ExamLen = [1, 1, 1, 1, 1, 1, 1, 1, 1, 1];
LunchTsMinLen = 0;
LunchStarts = [10..14, 25..32];
SupervisorAvailable = 0;
OptimalLunchLenght = [2, 1];
OptimalStartTs = [2, 0];
OptimalFinishTs = [2, 20];
MinimizeRooms = 100;
RolesSoftContinuity = [|1, 2, 3, 4|3, 4, 0, 4|];
SameDegreeInRoom = 20;
Mergeability = 1;
